NAME: opu01
TYPE: TSP
DIMENSION: 35
EDGE_WEIGHT_TYPE: EUC_2D
NODE_COORD_TYPE : TWOD_COORDS
NODE_COORD_SECTION
1  32   1122
2  271  1067
3  209  993
4  184  1205
5  303  1220
6  400  1122
7  505  1214
8  669  1202
9  779  1026
10 912  1029
11 1483 1156
12 1614 991
13 1576 567
14 1502 395
15 1618 227
16 1448 634
17 967  690
18 1059 842
19 759  823
20 1387 174
21 1073 82
22 944  327
23 866  512
24 748  638
25 487  896
26 118  653
27 35   902
28 502  339
29 683  316
30 694  123
31 45   52
32 367  39
33 105  210
34 340  85
35 1045 580
